# Solution for model qis_1000_800_596
# Objective value = 3.0079787057576857e+02
x[0] 1
x[1] 1
x[2] 0
x[3] 1
x[4] 0
x[5] 0
x[6] 0
x[7] 1
x[8] 1
x[9] 0
x[10] 1
x[11] 1
x[12] 1
x[13] 0
x[14] 0
x[15] 1
x[16] 1
x[17] 0
x[18] 1
x[19] 0
x[20] 1
x[21] 1
x[22] 0
x[23] 1
x[24] 0
x[25] 1
x[26] 0
x[27] 1
x[28] 1
x[29] 0
x[30] 1
x[31] 1
x[32] 1
x[33] 1
x[34] 1
x[35] 1
x[36] 0
x[37] 1
x[38] 1
x[39] 0
x[40] 1
x[41] 1
x[42] 0
x[43] 1
x[44] 1
x[45] 0
x[46] 0
x[47] 1
x[48] 0
x[49] 1
x[50] 0
x[51] 1
x[52] 0
x[53] 1
x[54] 1
x[55] 1
x[56] 0
x[57] 0
x[58] 1
x[59] 0
x[60] 1
x[61] 0
x[62] 0
x[63] 1
x[64] 0
x[65] 0
x[66] 0
x[67] 1
x[68] 1
x[69] 1
x[70] 0
x[71] 0
x[72] 1
x[73] 1
x[74] 0
x[75] 0
x[76] 0
x[77] 0
x[78] 0
x[79] 1
x[80] 1
x[81] 1
x[82] 0
x[83] 1
x[84] 1
x[85] 0
x[86] 1
x[87] 1
x[88] 1
x[89] 1
x[90] 0
x[91] 0
x[92] 1
x[93] 0
x[94] 0
x[95] 0
x[96] 0
x[97] 0
x[98] 1
x[99] 0
x[100] 0
x[101] 0
x[102] 0
x[103] 0
x[104] 0
x[105] 0
x[106] 0
x[107] 0
x[108] 0
x[109] 1
x[110] 0
x[111] 1
x[112] 0
x[113] 0
x[114] 1
x[115] 1
x[116] 1
x[117] 1
x[118] 1
x[119] 0
x[120] 1
x[121] 1
x[122] 0
x[123] 1
x[124] 0
x[125] 0
x[126] 0
x[127] 1
x[128] 0
x[129] 1
x[130] 0
x[131] 0
x[132] 0
x[133] 0
x[134] 1
x[135] 1
x[136] 1
x[137] 0
x[138] 1
x[139] 0
x[140] 1
x[141] 0
x[142] 1
x[143] 0
x[144] 1
x[145] 0
x[146] 0
x[147] 0
x[148] 0
x[149] 1
x[150] 1
x[151] 0
x[152] 0
x[153] 1
x[154] 1
x[155] 0
x[156] 1
x[157] 1
x[158] 0
x[159] 1
x[160] 0
x[161] 1
x[162] 0
x[163] 0
x[164] 0
x[165] 1
x[166] 0
x[167] 0
x[168] 0
x[169] 1
x[170] 0
x[171] 1
x[172] 1
x[173] 0
x[174] 1
x[175] 0
x[176] 1
x[177] 0
x[178] 0
x[179] 1
x[180] 1
x[181] 1
x[182] 0
x[183] 0
x[184] 0
x[185] 0
x[186] 0
x[187] 0
x[188] 1
x[189] 0
x[190] 0
x[191] 1
x[192] 1
x[193] 0
x[194] 1
x[195] 0
x[196] 1
x[197] 0
x[198] 0
x[199] 0
x[200] 1
x[201] 0
x[202] 0
x[203] 0
x[204] 0
x[205] 1
x[206] 0
x[207] 0
x[208] 1
x[209] 1
x[210] 0
x[211] 1
x[212] 0
x[213] 0
x[214] 0
x[215] 0
x[216] 1
x[217] 1
x[218] 0
x[219] 1
x[220] 0
x[221] 0
x[222] 1
x[223] 1
x[224] 1
x[225] 0
x[226] 1
x[227] 1
x[228] 0
x[229] 1
x[230] 1
x[231] 1
x[232] 1
x[233] 0
x[234] 0
x[235] 0
x[236] 0
x[237] 1
x[238] 0
x[239] 1
x[240] 0
x[241] 0
x[242] 0
x[243] 0
x[244] 1
x[245] 1
x[246] 0
x[247] 1
x[248] 1
x[249] 0
x[250] 1
x[251] 1
x[252] 0
x[253] 1
x[254] 1
x[255] 1
x[256] 0
x[257] 0
x[258] 1
x[259] 1
x[260] 1
x[261] 0
x[262] 1
x[263] 0
x[264] 0
x[265] 0
x[266] 1
x[267] 0
x[268] 0
x[269] 1
x[270] 1
x[271] 0
x[272] 0
x[273] 1
x[274] 0
x[275] 1
x[276] 1
x[277] 1
x[278] 1
x[279] 0
x[280] 1
x[281] 1
x[282] 0
x[283] 1
x[284] 1
x[285] 0
x[286] 1
x[287] 0
x[288] 0
x[289] 0
x[290] 0
x[291] 0
x[292] 0
x[293] 1
x[294] 0
x[295] 1
x[296] 0
x[297] 1
x[298] 0
x[299] 1
x[300] 0
x[301] 1
x[302] 0
x[303] 0
x[304] 0
x[305] 1
x[306] 1
x[307] 1
x[308] 0
x[309] 1
x[310] 0
x[311] 0
x[312] 1
x[313] 0
x[314] 1
x[315] 1
x[316] 1
x[317] 1
x[318] 1
x[319] 1
x[320] 0
x[321] 1
x[322] 0
x[323] 1
x[324] 0
x[325] 1
x[326] 0
x[327] 0
x[328] 1
x[329] 0
x[330] 0
x[331] 0
x[332] 0
x[333] 0
x[334] 1
x[335] 0
x[336] 1
x[337] 0
x[338] 0
x[339] 0
x[340] 1
x[341] 0
x[342] 0
x[343] 0
x[344] 0
x[345] 1
x[346] 1
x[347] 0
x[348] 0
x[349] 1
x[350] 0
x[351] 1
x[352] 0
x[353] 0
x[354] 1
x[355] 0
x[356] 1
x[357] 0
x[358] 1
x[359] 0
x[360] 1
x[361] 0
x[362] 0
x[363] 0
x[364] 0
x[365] 0
x[366] 0
x[367] 0
x[368] 0
x[369] 0
x[370] 1
x[371] 1
x[372] 0
x[373] 0
x[374] 1
x[375] 0
x[376] 1
x[377] 0
x[378] 0
x[379] 1
x[380] 0
x[381] 0
x[382] 0
x[383] 0
x[384] 0
x[385] 1
x[386] 1
x[387] 0
x[388] 1
x[389] 0
x[390] 0
x[391] 1
x[392] 1
x[393] 6.6601243759604943e-07
x[394] 1
x[395] 0
x[396] 0
x[397] 0
x[398] 1
x[399] 1
x[400] 0
x[401] 1
x[402] 1
x[403] 0
x[404] 1
x[405] 1
x[406] 1
x[407] 0
x[408] 0
x[409] 0
x[410] 1
x[411] 0
x[412] 0
x[413] 1
x[414] 0
x[415] 0
x[416] 1
x[417] 1
x[418] 0
x[419] 1
x[420] 1
x[421] 0
x[422] 1
x[423] 1
x[424] 1
x[425] 0
x[426] 1
x[427] 1
x[428] 1
x[429] 0
x[430] 0
x[431] 1
x[432] 0
x[433] 0
x[434] 1
x[435] 0
x[436] 0
x[437] 0
x[438] 0
x[439] 0
x[440] 0
x[441] 1
x[442] 1
x[443] 1
x[444] 0
x[445] 0
x[446] 1
x[447] 1
x[448] 0
x[449] 1
x[450] 0
x[451] 0
x[452] 0
x[453] 1
x[454] 1
x[455] 1
x[456] 0
x[457] 0
x[458] 1
x[459] 0
x[460] 1
x[461] 1
x[462] 0
x[463] 0
x[464] 0
x[465] 1
x[466] 1
x[467] 0
x[468] 0
x[469] 1
x[470] 1
x[471] 0
x[472] 1
x[473] 1
x[474] 0
x[475] 1
x[476] 1
x[477] 0
x[478] 0
x[479] 1
x[480] 1
x[481] 0
x[482] 1
x[483] 1
x[484] 0
x[485] 1
x[486] 0
x[487] 0
x[488] 1
x[489] 1
x[490] 1
x[491] 0
x[492] 1
x[493] 1
x[494] 0
x[495] 1
x[496] 0
x[497] 1
x[498] 0
x[499] 0
x[500] 1
x[501] 1
x[502] 0
x[503] 0
x[504] 0
x[505] 0
x[506] 1
x[507] 0
x[508] 1
x[509] 1
x[510] 1
x[511] 0
x[512] 1
x[513] 0
x[514] 1
x[515] 0
x[516] 0
x[517] 1
x[518] 0
x[519] 1
x[520] 0
x[521] 1
x[522] 1
x[523] 1
x[524] 0
x[525] 1
x[526] 0
x[527] 0
x[528] 0
x[529] 0
x[530] 1
x[531] 0
x[532] 0
x[533] 0
x[534] 0
x[535] 1
x[536] 1
x[537] 1
x[538] 0
x[539] 0
x[540] 1
x[541] 1
x[542] 1
x[543] 1
x[544] 0
x[545] 0
x[546] 0
x[547] 0
x[548] 0
x[549] 1
x[550] 1
x[551] 0
x[552] 0
x[553] 0
x[554] 0
x[555] 1
x[556] 1
x[557] 1
x[558] 0
x[559] 0
x[560] 0
x[561] 1
x[562] 1
x[563] 0
x[564] 1
x[565] 1
x[566] 0
x[567] 1
x[568] 0
x[569] 1
x[570] 1
x[571] 1
x[572] 1
x[573] 0
x[574] 0
x[575] 0
x[576] 1
x[577] 0
x[578] 0
x[579] 1
x[580] 1
x[581] 0
x[582] 0
x[583] 0
x[584] 0
x[585] 1
x[586] 1
x[587] 1
x[588] 0
x[589] 1
x[590] 1
x[591] 0
x[592] 0
x[593] 1
x[594] 0
x[595] 0
x[596] 0
x[597] 0
x[598] 0
x[599] 0
x[600] 0
x[601] 1
x[602] 0
x[603] 1
x[604] 0
x[605] 1
x[606] 1
x[607] 1
x[608] 0
x[609] 0
x[610] 0
x[611] 1
x[612] 0
x[613] 0
x[614] 0
x[615] 1
x[616] 1
x[617] 1
x[618] 0
x[619] 0
x[620] 1
x[621] 1
x[622] 1
x[623] 0
x[624] 1
x[625] 0
x[626] 1
x[627] 1
x[628] 1
x[629] 0
x[630] 1
x[631] 0
x[632] 0
x[633] 1
x[634] 0
x[635] 0
x[636] 0
x[637] 0
x[638] 1
x[639] 0
x[640] 0
x[641] 0
x[642] 1
x[643] 0
x[644] 0
x[645] 1
x[646] 0
x[647] 0
x[648] 1
x[649] 0
x[650] 0
x[651] 0
x[652] 0
x[653] 0
x[654] 1
x[655] 0
x[656] 1
x[657] 1
x[658] 0
x[659] 1
x[660] 0
x[661] 0
x[662] 1
x[663] 1
x[664] 1
x[665] 0
x[666] 1
x[667] 0
x[668] 1
x[669] 1
x[670] 0
x[671] 0
x[672] 1
x[673] 1
x[674] 1
x[675] 0
x[676] 0
x[677] 0
x[678] 0
x[679] 0
x[680] 1
x[681] 0
x[682] 1
x[683] 1
x[684] 0
x[685] 1
x[686] 1
x[687] 1
x[688] 0
x[689] 0
x[690] 1
x[691] 0
x[692] 1
x[693] 0
x[694] 1
x[695] 1
x[696] 0
x[697] 1
x[698] 1
x[699] 0
x[700] 0
x[701] 0
x[702] 1
x[703] 1
x[704] 0
x[705] 1
x[706] 0
x[707] 1
x[708] 1
x[709] 0
x[710] 0
x[711] 1
x[712] 1
x[713] 1
x[714] 1
x[715] 0
x[716] 1
x[717] 0
x[718] 1
x[719] 1
x[720] 0
x[721] 1
x[722] 1
x[723] 1
x[724] 0
x[725] 0
x[726] 1
x[727] 1
x[728] 1
x[729] 0
x[730] 0
x[731] 1
x[732] 1
x[733] 0
x[734] 1
x[735] 0
x[736] 0
x[737] 0
x[738] 1
x[739] 1
x[740] 0
x[741] 1
x[742] 1
x[743] 0
x[744] 0
x[745] 0
x[746] 0
x[747] 0
x[748] 0
x[749] 0
x[750] 1
x[751] 0
x[752] 0
x[753] 0
x[754] 0
x[755] 1
x[756] 1
x[757] 1
x[758] 0
x[759] 0
x[760] 1
x[761] 1
x[762] 0
x[763] 1
x[764] 1
x[765] 1
x[766] 0
x[767] 0
x[768] 0
x[769] 0
x[770] 0
x[771] 1
x[772] 0
x[773] 1
x[774] 0
x[775] 0
x[776] 0
x[777] 1
x[778] 1
x[779] 1
x[780] 1
x[781] 0
x[782] 0
x[783] 0
x[784] 0
x[785] 1
x[786] 0
x[787] 0
x[788] 1
x[789] 0
x[790] 0
x[791] 0
x[792] 1
x[793] 1
x[794] 1
x[795] 1
x[796] 1
x[797] 0
x[798] 0
x[799] 0
x[800] 1
x[801] 0
x[802] 1
x[803] 0
x[804] 1
x[805] 1
x[806] 1
x[807] 0
x[808] 0
x[809] 1
x[810] 0
x[811] 1
x[812] 0
x[813] 0
x[814] 0
x[815] 1
x[816] 0
x[817] 1
x[818] 0
x[819] 1
x[820] 0
x[821] 1
x[822] 1
x[823] 0
x[824] 1
x[825] 1
x[826] 1
x[827] 0
x[828] 0
x[829] 0
x[830] 1
x[831] 1
x[832] 1
x[833] 1
x[834] 0
x[835] 0
x[836] 0
x[837] 1
x[838] 1
x[839] 0
x[840] 0
x[841] 0
x[842] 0
x[843] 1
x[844] 0
x[845] 0
x[846] 1
x[847] 1
x[848] 0
x[849] 1
x[850] 0
x[851] 1
x[852] 0
x[853] 0
x[854] 0
x[855] 0
x[856] 1
x[857] 1
x[858] 0
x[859] 0
x[860] 1
x[861] 0
x[862] 0
x[863] 1
x[864] 0
x[865] 1
x[866] 1
x[867] 1
x[868] 0
x[869] 1
x[870] 1
x[871] 0
x[872] 0
x[873] 1
x[874] 1
x[875] 0
x[876] 1
x[877] 1
x[878] 0
x[879] 1
x[880] 0
x[881] 0
x[882] 0
x[883] 0
x[884] 0
x[885] 1
x[886] 1
x[887] 0
x[888] 0
x[889] 0
x[890] 0
x[891] 1
x[892] 1
x[893] 1
x[894] 0
x[895] 1
x[896] 0
x[897] 1
x[898] 0
x[899] 0
x[900] 1
x[901] 1
x[902] 0
x[903] 1
x[904] 0
x[905] 1
x[906] 0
x[907] 0
x[908] 1
x[909] 1
x[910] 0
x[911] 0
x[912] 0
x[913] 0
x[914] 1
x[915] 0
x[916] 1
x[917] 0
x[918] 0
x[919] 0
x[920] 1
x[921] 1
x[922] 0
x[923] 1
x[924] 0
x[925] 1
x[926] 0
x[927] 0
x[928] 0
x[929] 1
x[930] 1
x[931] 0
x[932] 1
x[933] 1
x[934] 1
x[935] 1
x[936] 1
x[937] 1
x[938] 0
x[939] 1
x[940] 1
x[941] 0
x[942] 1
x[943] 0
x[944] 0
x[945] 1
x[946] 1
x[947] 1
x[948] 1
x[949] 0
x[950] 1
x[951] 1
x[952] 1
x[953] 0
x[954] 0
x[955] 1
x[956] 1
x[957] 0
x[958] 0
x[959] 1
x[960] 1
x[961] 1
x[962] 0
x[963] 0
x[964] 1
x[965] 0
x[966] 1
x[967] 1
x[968] 0
x[969] 0
x[970] 0
x[971] 0
x[972] 0
x[973] 1
x[974] 1
x[975] 1
x[976] 0
x[977] 0
x[978] 0
x[979] 0
x[980] 1
x[981] 0
x[982] 0
x[983] 0
x[984] 1
x[985] 1
x[986] 1
x[987] 1
x[988] 0
x[989] 1
x[990] 0
x[991] 0
x[992] 1
x[993] 1
x[994] 0
x[995] 1
x[996] 0
x[997] 1
x[998] 1
x[999] 1
